3926
3928
3892
3882
3922
3876
3906
3857
3903
3948
3875
3977
3949
3831
3961
3971
3953
3930
3887
3892
3912
3931
3856
3926
3863
3909
3931
3890
3865
3932
3815
3908
3911
3861
3935
3833
3971
3873
3915
3929
3909
3926
3974
3930
3997
3953
3883
3952
3905
3955
3944
3853
3915
3951
3865
3927
3898
3837
3926
3911
3868
3890
3971
3904
3907
3841
3970
3887
3886
3931
3925
3956
3913
3894
3908
3902
3848
3917
3943
3893
3841
3917
3955
3940
3896
3872
3911
3838
3896
3920
3848
3841
3959
3920
3841
3911
3932
3962
3909
3835
